Route #1: 34 45 29 5 37 15 57 20 70 60 71 69 36 47 48
Route #2: 74 21 61 28 62 22 64 42 41 43 1 73
Route #3: 26 58 72 39 9 32 44 3 33 2 6
Route #4: 12 40 50 18 24 49 56 23 63 16 51 17
Route #5: 25 55 31 10 38 65 11 66 59
Route #6: 7 35 53 14 19 54 13 27 52 8 46
Route #7: 67 4 30 68 75
Cost 752